p tw 1347 1570
1 88
1 1242
2 89
2 1243
3 76
3 1244
4 77
4 1245
5 92
5 1246
6 54
6 1247
7 93
7 1248
8 98
8 1249
9 99
9 1250
10 55
10 1251
11 56
11 1252
12 57
12 1253
13 64
13 1254
14 65
14 1255
15 78
15 1256
16 79
16 1257
17 82
17 1258
18 117
18 1259
19 68
19 1260
20 83
20 1261
21 66
21 1262
22 67
22 1263
23 122
23 1264
24 84
24 1265
25 85
25 1266
26 70
26 1267
27 71
27 1268
28 69
28 1269
29 80
29 1270
30 129
30 1271
31 60
31 1272
32 61
32 1273
33 81
33 1274
34 90
34 1275
35 91
35 1276
36 135
36 1277
37 58
37 1278
38 59
38 1279
39 74
39 1280
40 96
40 1281
41 140
41 1282
42 75
42 1283
43 97
43 1284
44 86
44 1285
45 87
45 1286
46 94
46 1287
47 95
47 1288
48 72
48 1289
49 73
49 1290
50 62
50 1291
51 63
51 1292
52 151
52 1293
53 152
53 1294
54 55
54 105
55 109
56 57
56 110
57 111
58 59
58 136
59 137
60 61
60 130
61 131
62 63
62 149
63 150
64 65
64 112
65 113
66 67
66 120
67 121
68 69
68 118
69 127
70 71
70 125
71 126
72 73
72 147
73 148
74 75
74 138
75 141
76 77
76 102
77 103
78 79
78 114
79 115
80 81
80 128
81 132
82 83
82 116
83 119
84 85
84 123
85 124
86 87
86 143
87 144
88 89
88 100
89 101
90 91
90 133
91 134
92 93
92 104
93 106
94 95
94 145
95 146
96 97
96 139
97 142
98 99
98 107
99 108
100 177
101 161
102 162
103 197
104 198
105 178
106 193
107 155
108 207
109 175
110 176
111 179
112 180
113 194
114 213
115 169
116 156
117 171
118 170
119 183
120 184
121 189
122 190
123 172
124 191
125 192
126 187
127 188
128 227
129 195
130 181
131 230
132 163
133 164
134 157
135 158
136 196
137 173
138 174
139 182
140 165
141 159
142 153
143 154
144 167
145 168
146 166
147 246
148 185
149 186
150 160
151 250
152 251
153 154
153 241
154 242
155 156
155 206
156 215
157 158
157 233
158 234
159 160
159 240
160 249
161 162
161 200
162 201
163 164
163 231
164 232
165 166
165 239
166 245
167 168
167 243
168 244
169 170
169 214
170 217
171 172
171 216
172 222
173 174
173 236
174 237
175 176
175 208
176 209
177 178
177 199
178 204
179 180
179 210
180 211
181 182
181 229
182 238
183 184
183 218
184 219
185 186
185 247
186 248
187 188
187 225
188 226
189 190
189 220
190 221
191 192
191 223
192 224
193 194
193 205
194 212
195 196
195 228
196 235
197 198
197 202
198 203
199 282
200 268
201 269
202 296
203 297
204 283
205 304
206 260
207 258
208 259
209 308
210 288
211 310
212 292
213 293
214 270
215 261
216 289
217 271
218 286
219 287
220 256
221 252
222 253
223 322
224 276
225 290
226 291
227 257
228 277
229 284
230 266
231 267
232 331
233 280
234 274
235 275
236 278
237 279
238 285
239 281
240 264
241 254
242 255
243 294
244 343
245 262
246 263
247 272
248 347
249 265
250 295
251 273
252 253
252 320
253 321
254 255
254 340
255 341
256 257
256 319
257 326
258 259
258 306
259 307
260 261
260 305
261 314
262 263
262 344
263 345
264 265
264 339
265 348
266 267
266 329
267 330
268 269
268 299
269 300
270 271
270 313
271 316
272 273
272 346
273 350
274 275
274 333
275 334
276 277
276 323
277 327
278 279
278 335
279 336
280 281
280 332
281 338
282 283
282 298
283 303
284 285
284 328
285 337
286 287
286 317
287 318
288 289
288 309
289 315
290 291
290 324
291 325
292 293
292 311
293 312
294 295
294 342
295 349
296 297
296 301
297 302
298 385
299 386
300 373
301 374
302 389
303 351
304 390
305 395
306 396
307 352
308 353
309 354
310 361
311 362
312 375
313 376
314 379
315 414
316 365
317 380
318 363
319 364
320 419
321 381
322 382
323 367
324 368
325 366
326 377
327 426
328 357
329 358
330 378
331 387
332 388
333 432
334 355
335 356
336 371
337 393
338 437
339 372
340 394
341 383
342 384
343 391
344 392
345 369
346 370
347 359
348 360
349 448
350 449
351 352
351 402
352 406
353 354
353 407
354 408
355 356
355 433
356 434
357 358
357 427
358 428
359 360
359 446
360 447
361 362
361 409
362 410
363 364
363 417
364 418
365 366
365 415
366 424
367 368
367 422
368 423
369 370
369 444
370 445
371 372
371 435
372 438
373 374
373 399
374 400
375 376
375 411
376 412
377 378
377 425
378 429
379 380
379 413
380 416
381 382
381 420
382 421
383 384
383 440
384 441
385 386
385 397
386 398
387 388
387 430
388 431
389 390
389 401
390 403
391 392
391 442
392 443
393 394
393 436
394 439
395 396
395 404
396 405
397 474
398 458
399 459
400 494
401 495
402 475
403 490
404 452
405 504
406 472
407 473
408 476
409 477
410 491
411 510
412 466
413 453
414 468
415 467
416 480
417 481
418 486
419 487
420 469
421 488
422 489
423 484
424 485
425 524
426 492
427 478
428 527
429 460
430 461
431 454
432 455
433 493
434 470
435 471
436 479
437 462
438 456
439 450
440 451
441 464
442 465
443 463
444 543
445 482
446 483
447 457
448 547
449 548
450 451
450 538
451 539
452 453
452 503
453 512
454 455
454 530
455 531
456 457
456 537
457 546
458 459
458 497
459 498
460 461
460 528
461 529
462 463
462 536
463 542
464 465
464 540
465 541
466 467
466 511
467 514
468 469
468 513
469 519
470 471
470 533
471 534
472 473
472 505
473 506
474 475
474 496
475 501
476 477
476 507
477 508
478 479
478 526
479 535
480 481
480 515
481 516
482 483
482 544
483 545
484 485
484 522
485 523
486 487
486 517
487 518
488 489
488 520
489 521
490 491
490 502
491 509
492 493
492 525
493 532
494 495
494 499
495 500
496 579
497 565
498 566
499 593
500 594
501 580
502 601
503 557
504 555
505 556
506 605
507 585
508 607
509 589
510 590
511 567
512 558
513 586
514 568
515 583
516 584
517 553
518 549
519 550
520 619
521 573
522 587
523 588
524 554
525 574
526 581
527 563
528 564
529 628
530 577
531 571
532 572
533 575
534 576
535 582
536 578
537 561
538 551
539 552
540 591
541 640
542 559
543 560
544 569
545 644
546 562
547 592
548 570
549 550
549 617
550 618
551 552
551 637
552 638
553 554
553 616
554 623
555 556
555 603
556 604
557 558
557 602
558 611
559 560
559 641
560 642
561 562
561 636
562 645
563 564
563 626
564 627
565 566
565 596
566 597
567 568
567 610
568 613
569 570
569 643
570 647
571 572
571 630
572 631
573 574
573 620
574 624
575 576
575 632
576 633
577 578
577 629
578 635
579 580
579 595
580 600
581 582
581 625
582 634
583 584
583 614
584 615
585 586
585 606
586 612
587 588
587 621
588 622
589 590
589 608
590 609
591 592
591 639
592 646
593 594
593 598
594 599
595 682
596 683
597 670
598 671
599 686
600 648
601 687
602 692
603 693
604 649
605 650
606 651
607 658
608 659
609 672
610 673
611 676
612 711
613 662
614 677
615 660
616 661
617 716
618 678
619 679
620 664
621 665
622 663
623 674
624 723
625 654
626 655
627 675
628 684
629 685
630 729
631 652
632 653
633 668
634 690
635 734
636 669
637 691
638 680
639 681
640 688
641 689
642 666
643 667
644 656
645 657
646 745
647 746
648 649
648 699
649 703
650 651
650 704
651 705
652 653
652 730
653 731
654 655
654 724
655 725
656 657
656 743
657 744
658 659
658 706
659 707
660 661
660 714
661 715
662 663
662 712
663 721
664 665
664 719
665 720
666 667
666 741
667 742
668 669
668 732
669 735
670 671
670 696
671 697
672 673
672 708
673 709
674 675
674 722
675 726
676 677
676 710
677 713
678 679
678 717
679 718
680 681
680 737
681 738
682 683
682 694
683 695
684 685
684 727
685 728
686 687
686 698
687 700
688 689
688 739
689 740
690 691
690 733
691 736
692 693
692 701
693 702
694 771
695 755
696 756
697 791
698 792
699 772
700 787
701 749
702 801
703 769
704 770
705 773
706 774
707 788
708 807
709 763
710 750
711 765
712 764
713 777
714 778
715 783
716 784
717 766
718 785
719 786
720 781
721 782
722 821
723 789
724 775
725 824
726 757
727 758
728 751
729 752
730 790
731 767
732 768
733 776
734 759
735 753
736 747
737 748
738 761
739 762
740 760
741 840
742 779
743 780
744 754
745 844
746 845
747 748
747 835
748 836
749 750
749 800
750 809
751 752
751 827
752 828
753 754
753 834
754 843
755 756
755 794
756 795
757 758
757 825
758 826
759 760
759 833
760 839
761 762
761 837
762 838
763 764
763 808
764 811
765 766
765 810
766 816
767 768
767 830
768 831
769 770
769 802
770 803
771 772
771 793
772 798
773 774
773 804
774 805
775 776
775 823
776 832
777 778
777 812
778 813
779 780
779 841
780 842
781 782
781 819
782 820
783 784
783 814
784 815
785 786
785 817
786 818
787 788
787 799
788 806
789 790
789 822
790 829
791 792
791 796
792 797
793 876
794 862
795 863
796 890
797 891
798 877
799 898
800 854
801 852
802 853
803 902
804 882
805 904
806 886
807 887
808 864
809 855
810 883
811 865
812 880
813 881
814 850
815 846
816 847
817 916
818 870
819 884
820 885
821 851
822 871
823 878
824 860
825 861
826 925
827 874
828 868
829 869
830 872
831 873
832 879
833 875
834 858
835 848
836 849
837 888
838 937
839 856
840 857
841 866
842 941
843 859
844 889
845 867
846 847
846 914
847 915
848 849
848 934
849 935
850 851
850 913
851 920
852 853
852 900
853 901
854 855
854 899
855 908
856 857
856 938
857 939
858 859
858 933
859 942
860 861
860 923
861 924
862 863
862 893
863 894
864 865
864 907
865 910
866 867
866 940
867 944
868 869
868 927
869 928
870 871
870 917
871 921
872 873
872 929
873 930
874 875
874 926
875 932
876 877
876 892
877 897
878 879
878 922
879 931
880 881
880 911
881 912
882 883
882 903
883 909
884 885
884 918
885 919
886 887
886 905
887 906
888 889
888 936
889 943
890 891
890 895
891 896
892 979
893 980
894 967
895 968
896 983
897 945
898 984
899 989
900 990
901 946
902 947
903 948
904 955
905 956
906 969
907 970
908 973
909 1008
910 959
911 974
912 957
913 958
914 1013
915 975
916 976
917 961
918 962
919 960
920 971
921 1020
922 951
923 952
924 972
925 981
926 982
927 1026
928 949
929 950
930 965
931 987
932 1031
933 966
934 988
935 977
936 978
937 985
938 986
939 963
940 964
941 953
942 954
943 1042
944 1043
945 946
945 996
946 1000
947 948
947 1001
948 1002
949 950
949 1027
950 1028
951 952
951 1021
952 1022
953 954
953 1040
954 1041
955 956
955 1003
956 1004
957 958
957 1011
958 1012
959 960
959 1009
960 1018
961 962
961 1016
962 1017
963 964
963 1038
964 1039
965 966
965 1029
966 1032
967 968
967 993
968 994
969 970
969 1005
970 1006
971 972
971 1019
972 1023
973 974
973 1007
974 1010
975 976
975 1014
976 1015
977 978
977 1034
978 1035
979 980
979 991
980 992
981 982
981 1024
982 1025
983 984
983 995
984 997
985 986
985 1036
986 1037
987 988
987 1030
988 1033
989 990
989 998
990 999
991 1068
992 1052
993 1053
994 1088
995 1089
996 1069
997 1084
998 1046
999 1098
1000 1066
1001 1067
1002 1070
1003 1071
1004 1085
1005 1104
1006 1060
1007 1047
1008 1062
1009 1061
1010 1074
1011 1075
1012 1080
1013 1081
1014 1063
1015 1082
1016 1083
1017 1078
1018 1079
1019 1118
1020 1086
1021 1072
1022 1121
1023 1054
1024 1055
1025 1048
1026 1049
1027 1087
1028 1064
1029 1065
1030 1073
1031 1056
1032 1050
1033 1044
1034 1045
1035 1058
1036 1059
1037 1057
1038 1137
1039 1076
1040 1077
1041 1051
1042 1141
1043 1142
1044 1045
1044 1132
1045 1133
1046 1047
1046 1097
1047 1106
1048 1049
1048 1124
1049 1125
1050 1051
1050 1131
1051 1140
1052 1053
1052 1091
1053 1092
1054 1055
1054 1122
1055 1123
1056 1057
1056 1130
1057 1136
1058 1059
1058 1134
1059 1135
1060 1061
1060 1105
1061 1108
1062 1063
1062 1107
1063 1113
1064 1065
1064 1127
1065 1128
1066 1067
1066 1099
1067 1100
1068 1069
1068 1090
1069 1095
1070 1071
1070 1101
1071 1102
1072 1073
1072 1120
1073 1129
1074 1075
1074 1109
1075 1110
1076 1077
1076 1138
1077 1139
1078 1079
1078 1116
1079 1117
1080 1081
1080 1111
1081 1112
1082 1083
1082 1114
1083 1115
1084 1085
1084 1096
1085 1103
1086 1087
1086 1119
1087 1126
1088 1089
1088 1093
1089 1094
1090 1173
1091 1159
1092 1160
1093 1187
1094 1188
1095 1174
1096 1195
1097 1151
1098 1149
1099 1150
1100 1199
1101 1179
1102 1201
1103 1183
1104 1184
1105 1161
1106 1152
1107 1180
1108 1162
1109 1177
1110 1178
1111 1147
1112 1143
1113 1144
1114 1213
1115 1167
1116 1181
1117 1182
1118 1148
1119 1168
1120 1175
1121 1157
1122 1158
1123 1222
1124 1171
1125 1165
1126 1166
1127 1169
1128 1170
1129 1176
1130 1172
1131 1155
1132 1145
1133 1146
1134 1185
1135 1234
1136 1153
1137 1154
1138 1163
1139 1238
1140 1156
1141 1186
1142 1164
1143 1144
1143 1211
1144 1212
1145 1146
1145 1231
1146 1232
1147 1148
1147 1210
1148 1217
1149 1150
1149 1197
1150 1198
1151 1152
1151 1196
1152 1205
1153 1154
1153 1235
1154 1236
1155 1156
1155 1230
1156 1239
1157 1158
1157 1220
1158 1221
1159 1160
1159 1190
1160 1191
1161 1162
1161 1204
1162 1207
1163 1164
1163 1237
1164 1241
1165 1166
1165 1224
1166 1225
1167 1168
1167 1214
1168 1218
1169 1170
1169 1226
1170 1227
1171 1172
1171 1223
1172 1229
1173 1174
1173 1189
1174 1194
1175 1176
1175 1219
1176 1228
1177 1178
1177 1208
1178 1209
1179 1180
1179 1200
1180 1206
1181 1182
1181 1215
1182 1216
1183 1184
1183 1202
1184 1203
1185 1186
1185 1233
1186 1240
1187 1188
1187 1192
1188 1193
1189 1295
1190 1296
1191 1297
1192 1298
1193 1299
1194 1300
1195 1301
1196 1302
1197 1303
1198 1304
1199 1305
1200 1306
1201 1307
1202 1308
1203 1309
1204 1310
1205 1311
1206 1312
1207 1313
1208 1314
1209 1315
1210 1316
1211 1317
1212 1318
1213 1319
1214 1320
1215 1321
1216 1322
1217 1323
1218 1324
1219 1325
1220 1326
1221 1327
1222 1328
1223 1329
1224 1330
1225 1331
1226 1332
1227 1333
1228 1334
1229 1335
1230 1336
1231 1337
1232 1338
1233 1339
1234 1340
1235 1341
1236 1342
1237 1343
1238 1344
1239 1345
1240 1346
1241 1347
